c --- [ banner ] -------------------------------------------------------------
c 
c CaDiCaL Radically Simplified CDCL SAT Solver
c Copyright (c) 2016-2021 A. Biere, M. Fleury, N. Froleyks
c 
c Version 1.5.2 9c38a080b32c28d805e8e6ca21849856b0cda605
c g++ (Ubuntu 7.5.0-3ubuntu1~18.04) 7.5.0 -Wall -Wextra -O3 -DNDEBUG
c Wed Feb 16 23:15:36 EST 2022 Linux fac-vanhoeve01 5.4.0-99-generic x86_64
c 
c --- [ limit ] --------------------------------------------------------------
c 
c setting time limit to 600 seconds real time (due to '-t 600')
c setting conflict limit to 1000000000 conflicts (due to '1000000000')
c 
c --- [ parsing input ] ------------------------------------------------------
c 
c reading DIMACS file from 'ddfwcnfs/wap04a.col_40.cnf'
c opening file to read 'ddfwcnfs/wap04a.col_40.cnf'
c found 'p cnf 209240 11517191' header
c parsed 11517191 clauses in 6.53 seconds process time
c closing file 'ddfwcnfs/wap04a.col_40.cnf'
c after reading 199732645 bytes 190.5 MB
c 
c --- [ options ] ------------------------------------------------------------
c 
c all options are set to their default value
c 
c --- [ solving ] ------------------------------------------------------------
c 
c time measured in process time since initialization
c 
c  seconds   reductions  redundant   irredundant
c          MB    restarts       trail         variables
c           level   conflicts       glue            remaining
c 
c *  6.53 998  0 0   0    0    0  0% 0 11515591 207640 99%
c {  6.57 1000  0 0   0    0    0  0% 0 11515591 207640 99%
c -  8.39 1000 40 1   0  301  103  2% 36 11515591 207640 99%
c }  8.58 1000 40 1   0 1000  372  2% 36 11515591 207640 99%
c [  8.58 1000  0 1   0 1000  372  0% 0 11515591 207640 99%
c O  8.58 1000 55 1   0 1005  376  2% 37 11515591 207640 99%
c - 13.53 1265 43 2   1 2137  944  2% 39 11515591 207640 99%
c ] 13.63 1265 45 2   1 3002 1590  2% 40 11515591 207640 99%
c { 13.63 1265 40 2   1 3002 1590  2% 36 11515591 207640 99%
c F 13.63 1265 40 2   1 3009 1596  2% 36 11515591 207640 99%
c - 17.31 1265 45 3   9 4892 2265  3% 38 11515591 207640 99%
c # 26.23 1259 44 3  12 6010 3012  3% 38 11515591 207640 99%
c } 26.33 1259 50 3  12 7002 3813  3% 38 11515591 207640 99%
c [ 26.33 1259 45 3  12 7002 3813  2% 40 11515591 207640 99%
c - 30.12 1259 47 4  13 8565 3596  3% 41 11515591 207640 99%
c I 30.31 1259 53 4  14 10011 4698  3% 41 11515591 207640 99%
c s 34.14 1259 5294 4  16 11587 5555  9% 50 11515591 207640 99%
c e 53.42 1260 5294 4  16 11587 1703  9% 50 10703141 198403 95%
c - 59.57 1257 9355 5  16 13159 2425 15% 53 10703141 198403 95%
c ] 68.33 1257 14060 5  17 15002 3979 21% 66 10703141 198403 95%
c 
c  seconds    reductions   redundant    irredundant
c          MB     restarts        trail          variables
c            level    conflicts       glue             remaining
c 
c { 68.33 1257 50 5  17 15002 3979  3% 38 10703141 198403 95%
c B 68.38 1257 89 5  17 15012 3989  3% 38 10703141 198403 95%
c - 71.87 1258 229 6  22 18612 4685  3% 34 10703141 198403 95%
c W 75.49 1258 188 6  22 21015 6464  3% 34 10703141 198403 95%
c - 78.93 1257 150 7  26 24976 5923  3% 33 10703141 198403 95%
c F 79.24 1257 131 7  26 28018 8038  3% 32 10703141 198403 95%
c } 87.81 1257 116 7  28 31002 10191  3% 32 10703141 198403 95%
c [ 87.82 1257 14060 7  28 31002 10191 21% 66 10703141 198403 95%
c - 91.14 1258 12429 8  28 32247 7251 19% 62 10703141 198403 95%
c s 94.12 1258 10169 8  30 34602 8319 17% 59 10703141 198403 95%
c s 105.61 1258 10169 8  30 34602 8109 17% 59 10703141 198403 95%
c ^ 108.22 1258 10169 8  30 34602 8109 17% 59 10703141 198403 95%
c B 108.44 1258 9146 8  31 36021 9182 15% 58 10703141 198403 95%
c - 114.92 1259 10895 9  34 40426 8931 19% 66 10703141 198403 95%
c W 122.48 1259 9656 9  35 45022 12453 22% 80 10703141 198403 95%
c - 129.63 1260 9822 10  36 49515 9358 28% 80 10703141 198403 95%
c O 144.80 1260 8236 10  37 55025 13498 25% 82 10703141 198403 95%
c - 151.00 1259 7112 11  41 59512 9898 22% 76 10703141 198403 95%
c ] 151.68 1259 6408 11  43 63003 12224 20% 73 10703141 198403 95%
c { 151.68 1259 116 11  43 63003 12224  3% 32 10703141 198403 95%
c 
c  seconds      reductions     redundant    irredundant
c           MB       restarts         trail          variables
c              level     conflicts        glue             remaining
c 
c B 152.10 1259 111 11  43 66027 14803  3% 31 10703141 198403 95%
c s 153.62 1259 125 11 846 69124 15578  4% 32 10703141 198403 95%
c s 178.47 1259 125 11 846 69124 15378  4% 32 10703141 198403 95%
c ^ 181.65 1259 125 11 846 69124 15378  4% 32 10703141 198403 95%
c - 187.52 1258 121 12 1171 70421 8991  4% 32 10703141 198403 95%
c W 208.60 1258 101 12 2924 78028 11323  4% 33 10703141 198403 95%
c - 214.47 1258 94 13 3734 82238 6238  4% 34 10703141 198403 95%
c # 216.15 1258 84 13 4582 91030 9840  4% 35 10703141 198403 95%
c - 221.93 1258 80 14 4654 94964 7366  4% 35 10703141 198403 95%
c B 236.69 1258 71 14 4750 105031 13425  4% 35 10703141 198403 95%
c - 242.25 1258 70 15 4916 108597 9591  4% 35 10703141 198403 95%
c s 243.74 1258 66 15 5090 115154 12313  4% 36 10703141 198403 95%
c s 267.82 1258 66 15 5090 115154 10860  4% 36 10703141 198403 95%
c ^ 270.97 1258 66 15 5090 115154 10860  4% 36 10703141 198403 95%
c W 279.75 1258 64 15 5263 120033 13064  4% 36 10703141 198403 95%
c - 285.88 1258 63 16 5313 123139 8855  4% 36 10703141 198403 95%
c } 286.46 1258 61 16 5362 127003 10692  4% 36 10703141 198403 95%
c [ 286.46 1258 6408 16 5362 127003 10692 20% 73 10703141 198403 95%
c B 289.83 1258 8412 16 5367 136034 17713 23% 86 10703141 198403 95%
c - 295.31 1262 7903 17 5368 138591 12882 22% 84 10703141 198403 95%
c 
c  seconds       reductions       redundant    irredundant
c           MB        restarts           trail          variables
c              level       conflicts         glue             remaining
c 
c W 318.79 1262 5765 17 5371 153036 21850 17% 73 10703141 198403 95%
c - 325.10 1261 7422 18 5371 154952 14188 19% 80 10703141 198403 95%
c I 337.24 1261 15488 18 5374 171044 27848 26% 144 10703141 198403 95%
c - 342.81 1279 15673 19 5375 172222 18514 26% 142 10703141 198403 95%
c s 343.46 1279 15689 19 5375 172690 18203 26% 142 10703141 198403 95%
c w 356.35 1279 15689 19 5375 172690 18203 26% 142 10703141 198403 95%
c s 367.77 1279 15689 19 5375 172690 18017 26% 142 10703141 198403 95%
c ^ 370.94 1279 15689 19 5375 172690 18017 26% 142 10703141 198403 95%
c B 389.98 1279 12980 19 5385 190048 32320 25% 133 10703141 198403 95%
c - 395.32 1265 12984 20 5385 190400 19502 25% 133 10703141 198403 95%
c - 407.20 1266 10977 21 5393 209485 20001 25% 133 10703141 198403 95%
c W 417.45 1266 10904 21 5393 210049 20468 25% 133 10703141 198403 95%
c - 440.99 1266 8761 22 5401 229482 20906 23% 130 10703141 198403 95%
c O 441.28 1266 8606 22 5401 231050 22043 24% 129 10703141 198403 95%
c s 444.13 1266 7514 22 5402 241732 29486 21% 118 10703141 198403 95%
c w 457.28 1266 7514 22 5402 241732 29482 21% 118 10703141 198403 95%
c s 469.34 1266 7514 22 5402 241732 27979 21% 118 10703141 198403 95%
c ^ 472.59 1266 7514 22 5402 241732 27979 21% 118 10703141 198403 95%
c - 479.87 1261 6753 23 5402 250385 19307 19% 111 10703141 198403 95%
c B 480.54 1261 6538 23 5403 253054 21401 18% 108 10703141 198403 95%
c 
c  seconds       reductions       redundant     irredundant
c           MB        restarts           trail           variables
c              level       conflicts          glue             remaining
c 
c ] 480.91 1261 7587 23 5403 255004 22879 19% 108 10703141 198403 95%
c { 480.91 1261 61 23 5403 255004 22879  4% 36 10703141 198403 95%
c - 488.49 1260 62 24 9710 272199 15126  4% 41 10703141 198403 95%
c F 501.59 1260 62 24 10668 276056 16524  4% 42 10703141 198403 95%
c - 510.87 1260 57 25 10674 294921 18565  4% 41 10703141 198403 95%
c B 511.93 1260 56 25 10674 300061 22152  3% 41 10703141 198403 95%
c - 520.46 1263 97 26 12527 318551 23572  4% 43 10703141 198403 95%
c s 521.67 1263 104 26 12527 322284 25863  4% 42 10703141 198403 95%
c w 534.48 1263 104 26 12527 322284 25854  4% 42 10703141 198403 95%
c s 546.35 1263 104 26 12527 322284 25739  4% 42 10703141 198403 95%
c W 561.75 1263 109 26 12527 325063 28010  4% 42 10703141 198403 95%
c - 583.12 1262 98 27 12543 343090 24763  3% 42 10703141 198403 95%
c # 584.46 1262 92 27 12543 351066 29638  3% 41 10703141 198403 95%
c - 592.59 1262 85 28 12543 368537 26438  3% 40 10703141 198403 95%
c B 594.49 1262 82 28 12543 378068 34175  3% 39 10703141 198403 95%
c } 604.84 1262 82 28 12588 390011 43316  3% 39 10703141 198403 95%
c ? 604.84 1262 82 28 12588 390011 43316  3% 39 10703141 198403 95%
c 
c --- [ result ] -------------------------------------------------------------
c 
c UNKNOWN
c 
c --- [ run-time profiling ] -------------------------------------------------
c 
c process time taken by individual solving procedures
c (percentage relative to process time for solving)
c 
c       319.15   53.34% search
c       279.15   46.66% simplify
c       143.48   23.98% stable
c       120.84   20.20% unstable
c        68.52   11.45% ternary
c        66.88   11.18% elim
c        60.01   10.03% vivify
c        54.80    9.16% walk
c        10.79    1.80% subsume
c        10.60    1.77% probe
c         6.53    1.09% parse
c         0.04    0.01% lucky
c   =================================
c       598.31   98.92% solve
c 
c last line shows process time for solving
c (percentage relative to total process time)
c 
c --- [ statistics ] ---------------------------------------------------------
c 
c chronological:             68803        17.64 %  of conflicts
c conflicts:                390011       651.86    per second
c decisions:               2036620      3403.97    per second
c eliminated:                 9237         4.41 %  of all variables
c fixed:                      1600         0.76 %  of all variables
c learned:                  386175        99.02 %  per conflict
c learned_lits:           58213735       100.00 %  learned literals
c minimized:                     0         0.00 %  learned literals
c shrunken:               24220261        41.61 %  learned literals
c minishrunken:            1193350         2.05 %  learned literals
c propagations:          147034568         0.25 M  per second
c reduced:                  212407        54.46 %  per conflict
c rephased:                     27     14444.85    interval
c restarts:                  12588        30.98    interval
c stabilizing:                   4        43.59 %  of conflicts
c subsumed:                 126582         0.52 %  of all clauses
c strengthened:              19278         0.08 %  of all clauses
c vivified:                     28         0.00 %  of all clauses
c walked:                        7     55715.86    interval
c weakened:                 975519         2.70    average size
c 
c seconds are measured in process time for solving
c 
c --- [ resources ] ----------------------------------------------------------
c 
c total process time since initialization:       604.84    seconds
c total real time since initialization:          604.91    seconds
c maximum resident set size of process:         1617.08    MB
c 
c --- [ shutting down ] ------------------------------------------------------
c 
c exit 0
